nodes = 77;
edges = 272;
starts = [1, 2, 2, 3, 4, 4, 5, 5, 5, 6, 6, 6, 7, 8, 9, 10, 11, 11, 12, 12, 13, 13, 13, 14, 14, 15, 15, 16, 16, 16, 17, 17, 17, 18, 18, 19, 19, 20, 20, 21, 21, 22, 23, 24, 24, 25, 25, 25, 26, 26, 27, 27, 28, 28, 29, 29, 29, 30, 30, 30, 31, 31, 32, 33, 33, 34, 34, 35, 35, 36, 36, 37, 38, 38, 39, 39, 40, 40, 41, 41, 42, 42, 43, 44, 45, 45, 46, 46, 47, 47, 48, 48, 49, 50, 50, 50, 51, 51, 52, 53, 53, 54, 55, 56, 56, 57, 58, 59, 59, 60, 60, 61, 62, 62, 63, 63, 64, 64, 65, 66, 67, 67, 68, 69, 70, 71, 71, 72, 72, 73, 74, 74, 75, 75, 76, 77, 42, 4, 5, 25, 2, 65, 6, 45, 48, 4, 5, 44, 68, 20, 75, 57, 12, 33, 11, 59, 16, 17, 63, 28, 50, 16, 38, 8, 13, 18, 13, 30, 59, 15, 47, 27, 69, 1, 42, 30, 51, 52, 18, 9, 26, 3, 58, 72, 9, 43, 6, 48, 29, 70, 28, 30, 50, 17, 21, 29, 70, 74, 60, 24, 68, 23, 56, 22, 76, 7, 71, 39, 57, 73, 37, 40, 39, 46, 34, 42, 12, 33, 54, 6, 5, 77, 10, 15, 39, 46, 49, 55, 19, 14, 29, 51, 21, 50, 25, 27, 66, 61, 77, 23, 47, 73, 25, 12, 17, 36, 54, 32, 67, 73, 1, 8, 2, 65, 64, 27, 13, 16, 41, 3, 62, 7, 68, 53, 66, 31, 35, 76, 43, 54, 22, 45];
ends = [42, 4, 5, 25, 2, 65, 6, 45, 48, 4, 5, 44, 68, 20, 75, 57, 12, 33, 11, 59, 16, 17, 63, 28, 50, 16, 38, 8, 13, 18, 13, 30, 59, 15, 47, 27, 69, 1, 42, 30, 51, 52, 18, 9, 26, 3, 58, 72, 9, 43, 6, 48, 29, 70, 28, 30, 50, 17, 21, 29, 70, 74, 60, 24, 68, 23, 56, 22, 76, 7, 71, 39, 57, 73, 37, 40, 39, 46, 34, 42, 12, 33, 54, 6, 5, 77, 10, 15, 39, 46, 49, 55, 19, 14, 29, 51, 21, 50, 25, 27, 66, 61, 77, 23, 47, 73, 25, 12, 17, 36, 54, 32, 67, 73, 1, 8, 2, 65, 64, 27, 13, 16, 41, 3, 62, 7, 68, 53, 66, 31, 35, 76, 43, 54, 22, 45, 1, 2, 2, 3, 4, 4, 5, 5, 5, 6, 6, 6, 7, 8, 9, 10, 11, 11, 12, 12, 13, 13, 13, 14, 14, 15, 15, 16, 16, 16, 17, 17, 17, 18, 18, 19, 19, 20, 20, 21, 21, 22, 23, 24, 24, 25, 25, 25, 26, 26, 27, 27, 28, 28, 29, 29, 29, 30, 30, 30, 31, 31, 32, 33, 33, 34, 34, 35, 35, 36, 36, 37, 38, 38, 39, 39, 40, 40, 41, 41, 42, 42, 43, 44, 45, 45, 46, 46, 47, 47, 48, 48, 49, 50, 50, 50, 51, 51, 52, 53, 53, 54, 55, 56, 56, 57, 58, 59, 59, 60, 60, 61, 62, 62, 63, 63, 64, 64, 65, 66, 67, 67, 68, 69, 70, 71, 71, 72, 72, 73, 74, 74, 75, 75, 76, 77];
weights = [126, 14, 225, 11, 14, 316, 14, 348, 201, 223, 14, 306, 347, 198, 127, 82, 14, 356, 14, 538, 9, 271, 359, 176, 182, 18, 188, 497, 9, 17, 271, 462, 452, 14, 10, 14, 91, 83, 204, 156, 18, 100, 286, 329, 188, 11, 315, 138, 144, 378, 200, 13, 182, 20, 182, 172, 175, 462, 156, 172, 17, 71, 12, 78, 20, 441, 300, 225, 94, 239, 103, 54, 98, 237, 54, 8, 8, 561, 164, 20, 360, 9, 109, 306, 348, 175, 201, 10, 563, 14, 14, 120, 13, 182, 175, 169, 18, 169, 493, 285, 81, 10, 202, 142, 427, 142, 315, 538, 452, 152, 18, 19, 35, 16, 420, 140, 316, 15, 15, 206, 402, 401, 9, 923, 8, 136, 482, 583, 660, 8, 511, 607, 106, 210, 137, 175, 126, 14, 225, 11, 14, 316, 14, 348, 201, 223, 14, 306, 347, 198, 127, 82, 14, 356, 14, 538, 9, 271, 359, 176, 182, 18, 188, 497, 9, 17, 271, 462, 452, 14, 10, 14, 91, 83, 204, 156, 18, 100, 286, 329, 188, 11, 315, 138, 144, 378, 200, 13, 182, 20, 182, 172, 175, 462, 156, 172, 17, 71, 12, 78, 20, 441, 300, 225, 94, 239, 103, 54, 98, 237, 54, 8, 8, 561, 164, 20, 360, 9, 109, 306, 348, 175, 201, 10, 563, 14, 14, 120, 13, 182, 175, 169, 18, 169, 493, 285, 81, 10, 202, 142, 427, 142, 315, 538, 452, 152, 18, 19, 35, 16, 420, 140, 316, 15, 15, 206, 402, 401, 9, 923, 8, 136, 482, 583, 660, 8, 511, 607, 106, 210, 137, 175];
start = 68;
end= 69;
tasks = 4;
task = array2d(1..tasks, 1..nodes, [1, 0, 0, 0, 0, 0, 0, 0, 0, 0, 0, 0, 0, 0, 0, 0, 0, 0, 0, 0, 0, 0, 0, 0, 0, 0, 0, 0, 0, 0, 0, 0, 0, 0, 0, 0, 0, 0, 0, 0, 0, 0, 0, 0, 0, 0, 0, 0, 0, 0, 0, 0, 0, 0, 0, 0, 0, 0, 0, 0, 1, 0, 0, 0, 0, 0, 0, 0, 0, 1, 0, 0, 0, 0, 0, 0, 0, 0, 0, 1, 0, 0, 0, 0, 0, 0, 0, 0, 0, 0, 0, 0, 0, 0, 0, 0, 0, 0, 0, 0, 1, 0, 0, 0, 0, 0, 0, 0, 0, 1, 0, 0, 0, 0, 0, 0, 0, 0, 0, 0, 0, 0, 0, 0, 0, 0, 0, 0, 0, 0, 0, 0, 0, 0, 0, 0, 0, 0, 0, 0, 0, 0, 0, 0, 0, 0, 0, 0, 0, 0, 0, 0, 0, 0, 0, 0, 0, 0, 0, 0, 0, 0, 0, 1, 0, 0, 1, 0, 0, 0, 0, 0, 0, 0, 0, 0, 0, 0, 0, 0, 0, 0, 0, 0, 0, 0, 0, 0, 0, 0, 0, 0, 0, 0, 0, 0, 0, 0, 0, 0, 0, 0, 0, 0, 0, 0, 0, 1, 0, 0, 0, 0, 0, 0, 0, 0, 0, 0, 0, 0, 0, 0, 0, 0, 0, 0, 0, 0, 0, 0, 0, 0, 0, 0, 0, 0, 0, 0, 0, 0, 0, 1, 0, 0, 0, 0, 0, 0, 0, 0, 0, 0, 0, 0, 0, 0, 0, 0, 0, 0, 0, 0, 0, 0, 0, 0, 0, 0, 0, 0, 0, 0, 0, 0, 1, 0, 0, 0, 0, 0, 0, 0, 0, 0, 0, 0, 0, 0, 0, 0, 0, 0, 0, 0, 0, 0, 0, 0, 0, 0, 0, 0, 0, 0, 1, 0, 0, 0]);
